7
0, 561, 290, 671, 554, 308, 396
561, 0, 818, 158, 269, 336, 812
290, 818, 0, 945, 844, 598, 528
671, 158, 945, 0, 217, 396, 859
554, 269, 844, 217, 0, 247, 664
308, 336, 598, 396, 247, 0, 476
396, 812, 528, 859, 664, 476, 0
